{
  "cumulativeMachines": [{
    "nr": 1,
    "name": "C",
    "limit": 1000
  }],
  "nrJobs": 1,
  "jobs": [{
    "noOverlap": false,
    "nr": 1,
    "due": 0,
    "release": 0,
    "name": "Job"
  }],
  "nrSequences": 58,
  "nrCumulativeMachines": 1,
  "nrTasks": 50,
  "nrMachines": 0,
  "sequences": [
    {
      "offset": 0,
      "before": 1,
      "after": 33,
      "sequenceType": "StartBeforeStart"
    },
    {
      "offset": 0,
      "before": 2,
      "after": 8,
      "sequenceType": "StartBeforeStart"
    },
    {
      "offset": 0,
      "before": 2,
      "after": 9,
      "sequenceType": "StartBeforeStart"
    },
    {
      "offset": 0,
      "before": 4,
      "after": 11,
      "sequenceType": "StartBeforeStart"
    },
    {
      "offset": 0,
      "before": 4,
      "after": 38,
      "sequenceType": "StartBeforeStart"
    },
    {
      "offset": 0,
      "before": 5,
      "after": 10,
      "sequenceType": "StartBeforeStart"
    },
    {
      "offset": 0,
      "before": 5,
      "after": 30,
      "sequenceType": "StartBeforeStart"
    },
    {
      "offset": 0,
      "before": 6,
      "after": 7,
      "sequenceType": "StartBeforeStart"
    },
    {
      "offset": 0,
      "before": 7,
      "after": 33,
      "sequenceType": "StartBeforeStart"
    },
    {
      "offset": 0,
      "before": 8,
      "after": 13,
      "sequenceType": "StartBeforeStart"
    },
    {
      "offset": 0,
      "before": 9,
      "after": 12,
      "sequenceType": "StartBeforeStart"
    },
    {
      "offset": 0,
      "before": 9,
      "after": 14,
      "sequenceType": "StartBeforeStart"
    },
    {
      "offset": 0,
      "before": 9,
      "after": 15,
      "sequenceType": "StartBeforeStart"
    },
    {
      "offset": 0,
      "before": 9,
      "after": 17,
      "sequenceType": "StartBeforeStart"
    },
    {
      "offset": 0,
      "before": 11,
      "after": 12,
      "sequenceType": "StartBeforeStart"
    },
    {
      "offset": 0,
      "before": 11,
      "after": 16,
      "sequenceType": "StartBeforeStart"
    },
    {
      "offset": 0,
      "before": 12,
      "after": 33,
      "sequenceType": "StartBeforeStart"
    },
    {
      "offset": 0,
      "before": 13,
      "after": 18,
      "sequenceType": "StartBeforeStart"
    },
    {
      "offset": 0,
      "before": 14,
      "after": 19,
      "sequenceType": "StartBeforeStart"
    },
    {
      "offset": 0,
      "before": 14,
      "after": 21,
      "sequenceType": "StartBeforeStart"
    },
    {
      "offset": 0,
      "before": 15,
      "after": 23,
      "sequenceType": "StartBeforeStart"
    },
    {
      "offset": 0,
      "before": 15,
      "after": 30,
      "sequenceType": "StartBeforeStart"
    },
    {
      "offset": 0,
      "before": 15,
      "after": 32,
      "sequenceType": "StartBeforeStart"
    },
    {
      "offset": 0,
      "before": 16,
      "after": 24,
      "sequenceType": "StartBeforeStart"
    },
    {
      "offset": 0,
      "before": 17,
      "after": 20,
      "sequenceType": "StartBeforeStart"
    },
    {
      "offset": 0,
      "before": 17,
      "after": 22,
      "sequenceType": "StartBeforeStart"
    },
    {
      "offset": 0,
      "before": 18,
      "after": 27,
      "sequenceType": "StartBeforeStart"
    },
    {
      "offset": 0,
      "before": 19,
      "after": 28,
      "sequenceType": "StartBeforeStart"
    },
    {
      "offset": 0,
      "before": 20,
      "after": 26,
      "sequenceType": "StartBeforeStart"
    },
    {
      "offset": 0,
      "before": 20,
      "after": 31,
      "sequenceType": "StartBeforeStart"
    },
    {
      "offset": 0,
      "before": 21,
      "after": 29,
      "sequenceType": "StartBeforeStart"
    },
    {
      "offset": 0,
      "before": 21,
      "after": 30,
      "sequenceType": "StartBeforeStart"
    },
    {
      "offset": 0,
      "before": 21,
      "after": 32,
      "sequenceType": "StartBeforeStart"
    },
    {
      "offset": 0,
      "before": 22,
      "after": 25,
      "sequenceType": "StartBeforeStart"
    },
    {
      "offset": 0,
      "before": 22,
      "after": 44,
      "sequenceType": "StartBeforeStart"
    },
    {
      "offset": 0,
      "before": 23,
      "after": 31,
      "sequenceType": "StartBeforeStart"
    },
    {
      "offset": 0,
      "before": 23,
      "after": 48,
      "sequenceType": "StartBeforeStart"
    },
    {
      "offset": 0,
      "before": 25,
      "after": 33,
      "sequenceType": "StartBeforeStart"
    },
    {
      "offset": 0,
      "before": 26,
      "after": 34,
      "sequenceType": "StartBeforeStart"
    },
    {
      "offset": 0,
      "before": 27,
      "after": 37,
      "sequenceType": "StartBeforeStart"
    },
    {
      "offset": 0,
      "before": 28,
      "after": 35,
      "sequenceType": "StartBeforeStart"
    },
    {
      "offset": 0,
      "before": 29,
      "after": 36,
      "sequenceType": "StartBeforeStart"
    },
    {
      "offset": 0,
      "before": 30,
      "after": 38,
      "sequenceType": "StartBeforeStart"
    },
    {
      "offset": 0,
      "before": 31,
      "after": 49,
      "sequenceType": "StartBeforeStart"
    },
    {
      "offset": 0,
      "before": 33,
      "after": 39,
      "sequenceType": "StartBeforeStart"
    },
    {
      "offset": 0,
      "before": 33,
      "after": 40,
      "sequenceType": "StartBeforeStart"
    },
    {
      "offset": 0,
      "before": 33,
      "after": 41,
      "sequenceType": "StartBeforeStart"
    },
    {
      "offset": 0,
      "before": 33,
      "after": 42,
      "sequenceType": "StartBeforeStart"
    },
    {
      "offset": 0,
      "before": 33,
      "after": 47,
      "sequenceType": "StartBeforeStart"
    },
    {
      "offset": 0,
      "before": 34,
      "after": 44,
      "sequenceType": "StartBeforeStart"
    },
    {
      "offset": 0,
      "before": 35,
      "after": 45,
      "sequenceType": "StartBeforeStart"
    },
    {
      "offset": 0,
      "before": 36,
      "after": 43,
      "sequenceType": "StartBeforeStart"
    },
    {
      "offset": 0,
      "before": 37,
      "after": 45,
      "sequenceType": "StartBeforeStart"
    },
    {
      "offset": 0,
      "before": 37,
      "after": 46,
      "sequenceType": "StartBeforeStart"
    },
    {
      "offset": 0,
      "before": 37,
      "after": 47,
      "sequenceType": "StartBeforeStart"
    },
    {
      "offset": 0,
      "before": 38,
      "after": 48,
      "sequenceType": "StartBeforeStart"
    },
    {
      "offset": 0,
      "before": 43,
      "after": 49,
      "sequenceType": "StartBeforeStart"
    },
    {
      "offset": 0,
      "before": 46,
      "after": 50,
      "sequenceType": "StartBeforeStart"
    }
  ],
  "nrCumulativeNeeds": 50,
  "horizon": 2000,
  "machines": [],
  "cumulativeNeeds": [
    {
      "cumulativeMachine": "C",
      "taskNr": 1,
      "demand": 73
    },
    {
      "cumulativeMachine": "C",
      "taskNr": 2,
      "demand": 125
    },
    {
      "cumulativeMachine": "C",
      "taskNr": 3,
      "demand": 172
    },
    {
      "cumulativeMachine": "C",
      "taskNr": 4,
      "demand": 58
    },
    {
      "cumulativeMachine": "C",
      "taskNr": 5,
      "demand": 139
    },
    {
      "cumulativeMachine": "C",
      "taskNr": 6,
      "demand": 91
    },
    {
      "cumulativeMachine": "C",
      "taskNr": 7,
      "demand": 166
    },
    {
      "cumulativeMachine": "C",
      "taskNr": 8,
      "demand": 76
    },
    {
      "cumulativeMachine": "C",
      "taskNr": 9,
      "demand": 210
    },
    {
      "cumulativeMachine": "C",
      "taskNr": 10,
      "demand": 116
    },
    {
      "cumulativeMachine": "C",
      "taskNr": 11,
      "demand": 72
    },
    {
      "cumulativeMachine": "C",
      "taskNr": 12,
      "demand": 203
    },
    {
      "cumulativeMachine": "C",
      "taskNr": 13,
      "demand": 141
    },
    {
      "cumulativeMachine": "C",
      "taskNr": 14,
      "demand": 95
    },
    {
      "cumulativeMachine": "C",
      "taskNr": 15,
      "demand": 256
    },
    {
      "cumulativeMachine": "C",
      "taskNr": 16,
      "demand": 105
    },
    {
      "cumulativeMachine": "C",
      "taskNr": 17,
      "demand": 218
    },
    {
      "cumulativeMachine": "C",
      "taskNr": 18,
      "demand": 292
    },
    {
      "cumulativeMachine": "C",
      "taskNr": 19,
      "demand": 145
    },
    {
      "cumulativeMachine": "C",
      "taskNr": 20,
      "demand": 93
    },
    {
      "cumulativeMachine": "C",
      "taskNr": 21,
      "demand": 133
    },
    {
      "cumulativeMachine": "C",
      "taskNr": 22,
      "demand": 191
    },
    {
      "cumulativeMachine": "C",
      "taskNr": 23,
      "demand": 62
    },
    {
      "cumulativeMachine": "C",
      "taskNr": 24,
      "demand": 104
    },
    {
      "cumulativeMachine": "C",
      "taskNr": 25,
      "demand": 76
    },
    {
      "cumulativeMachine": "C",
      "taskNr": 26,
      "demand": 169
    },
    {
      "cumulativeMachine": "C",
      "taskNr": 27,
      "demand": 251
    },
    {
      "cumulativeMachine": "C",
      "taskNr": 28,
      "demand": 198
    },
    {
      "cumulativeMachine": "C",
      "taskNr": 29,
      "demand": 259
    },
    {
      "cumulativeMachine": "C",
      "taskNr": 30,
      "demand": 148
    },
    {
      "cumulativeMachine": "C",
      "taskNr": 31,
      "demand": 182
    },
    {
      "cumulativeMachine": "C",
      "taskNr": 32,
      "demand": 52
    },
    {
      "cumulativeMachine": "C",
      "taskNr": 33,
      "demand": 176
    },
    {
      "cumulativeMachine": "C",
      "taskNr": 34,
      "demand": 157
    },
    {
      "cumulativeMachine": "C",
      "taskNr": 35,
      "demand": 103
    },
    {
      "cumulativeMachine": "C",
      "taskNr": 36,
      "demand": 222
    },
    {
      "cumulativeMachine": "C",
      "taskNr": 37,
      "demand": 73
    },
    {
      "cumulativeMachine": "C",
      "taskNr": 38,
      "demand": 86
    },
    {
      "cumulativeMachine": "C",
      "taskNr": 39,
      "demand": 198
    },
    {
      "cumulativeMachine": "C",
      "taskNr": 40,
      "demand": 191
    },
    {
      "cumulativeMachine": "C",
      "taskNr": 41,
      "demand": 39
    },
    {
      "cumulativeMachine": "C",
      "taskNr": 42,
      "demand": 159
    },
    {
      "cumulativeMachine": "C",
      "taskNr": 43,
      "demand": 184
    },
    {
      "cumulativeMachine": "C",
      "taskNr": 44,
      "demand": 219
    },
    {
      "cumulativeMachine": "C",
      "taskNr": 45,
      "demand": 49
    },
    {
      "cumulativeMachine": "C",
      "taskNr": 46,
      "demand": 148
    },
    {
      "cumulativeMachine": "C",
      "taskNr": 47,
      "demand": 183
    },
    {
      "cumulativeMachine": "C",
      "taskNr": 48,
      "demand": 228
    },
    {
      "cumulativeMachine": "C",
      "taskNr": 49,
      "demand": 163
    },
    {
      "cumulativeMachine": "C",
      "taskNr": 50,
      "demand": 27
    }
  ],
  "tasks": [
    {
      "duration": 1,
      "nr": 1,
      "machine": "n/a",
      "name": "T1",
      "job": "Job"
    },
    {
      "duration": 1,
      "nr": 2,
      "machine": "n/a",
      "name": "T2",
      "job": "Job"
    },
    {
      "duration": 1,
      "nr": 3,
      "machine": "n/a",
      "name": "T3",
      "job": "Job"
    },
    {
      "duration": 1,
      "nr": 4,
      "machine": "n/a",
      "name": "T4",
      "job": "Job"
    },
    {
      "duration": 1,
      "nr": 5,
      "machine": "n/a",
      "name": "T5",
      "job": "Job"
    },
    {
      "duration": 1,
      "nr": 6,
      "machine": "n/a",
      "name": "T6",
      "job": "Job"
    },
    {
      "duration": 1,
      "nr": 7,
      "machine": "n/a",
      "name": "T7",
      "job": "Job"
    },
    {
      "duration": 1,
      "nr": 8,
      "machine": "n/a",
      "name": "T8",
      "job": "Job"
    },
    {
      "duration": 1,
      "nr": 9,
      "machine": "n/a",
      "name": "T9",
      "job": "Job"
    },
    {
      "duration": 1,
      "nr": 10,
      "machine": "n/a",
      "name": "T10",
      "job": "Job"
    },
    {
      "duration": 1,
      "nr": 11,
      "machine": "n/a",
      "name": "T11",
      "job": "Job"
    },
    {
      "duration": 1,
      "nr": 12,
      "machine": "n/a",
      "name": "T12",
      "job": "Job"
    },
    {
      "duration": 1,
      "nr": 13,
      "machine": "n/a",
      "name": "T13",
      "job": "Job"
    },
    {
      "duration": 1,
      "nr": 14,
      "machine": "n/a",
      "name": "T14",
      "job": "Job"
    },
    {
      "duration": 1,
      "nr": 15,
      "machine": "n/a",
      "name": "T15",
      "job": "Job"
    },
    {
      "duration": 1,
      "nr": 16,
      "machine": "n/a",
      "name": "T16",
      "job": "Job"
    },
    {
      "duration": 1,
      "nr": 17,
      "machine": "n/a",
      "name": "T17",
      "job": "Job"
    },
    {
      "duration": 1,
      "nr": 18,
      "machine": "n/a",
      "name": "T18",
      "job": "Job"
    },
    {
      "duration": 1,
      "nr": 19,
      "machine": "n/a",
      "name": "T19",
      "job": "Job"
    },
    {
      "duration": 1,
      "nr": 20,
      "machine": "n/a",
      "name": "T20",
      "job": "Job"
    },
    {
      "duration": 1,
      "nr": 21,
      "machine": "n/a",
      "name": "T21",
      "job": "Job"
    },
    {
      "duration": 1,
      "nr": 22,
      "machine": "n/a",
      "name": "T22",
      "job": "Job"
    },
    {
      "duration": 1,
      "nr": 23,
      "machine": "n/a",
      "name": "T23",
      "job": "Job"
    },
    {
      "duration": 1,
      "nr": 24,
      "machine": "n/a",
      "name": "T24",
      "job": "Job"
    },
    {
      "duration": 1,
      "nr": 25,
      "machine": "n/a",
      "name": "T25",
      "job": "Job"
    },
    {
      "duration": 1,
      "nr": 26,
      "machine": "n/a",
      "name": "T26",
      "job": "Job"
    },
    {
      "duration": 1,
      "nr": 27,
      "machine": "n/a",
      "name": "T27",
      "job": "Job"
    },
    {
      "duration": 1,
      "nr": 28,
      "machine": "n/a",
      "name": "T28",
      "job": "Job"
    },
    {
      "duration": 1,
      "nr": 29,
      "machine": "n/a",
      "name": "T29",
      "job": "Job"
    },
    {
      "duration": 1,
      "nr": 30,
      "machine": "n/a",
      "name": "T30",
      "job": "Job"
    },
    {
      "duration": 1,
      "nr": 31,
      "machine": "n/a",
      "name": "T31",
      "job": "Job"
    },
    {
      "duration": 1,
      "nr": 32,
      "machine": "n/a",
      "name": "T32",
      "job": "Job"
    },
    {
      "duration": 1,
      "nr": 33,
      "machine": "n/a",
      "name": "T33",
      "job": "Job"
    },
    {
      "duration": 1,
      "nr": 34,
      "machine": "n/a",
      "name": "T34",
      "job": "Job"
    },
    {
      "duration": 1,
      "nr": 35,
      "machine": "n/a",
      "name": "T35",
      "job": "Job"
    },
    {
      "duration": 1,
      "nr": 36,
      "machine": "n/a",
      "name": "T36",
      "job": "Job"
    },
    {
      "duration": 1,
      "nr": 37,
      "machine": "n/a",
      "name": "T37",
      "job": "Job"
    },
    {
      "duration": 1,
      "nr": 38,
      "machine": "n/a",
      "name": "T38",
      "job": "Job"
    },
    {
      "duration": 1,
      "nr": 39,
      "machine": "n/a",
      "name": "T39",
      "job": "Job"
    },
    {
      "duration": 1,
      "nr": 40,
      "machine": "n/a",
      "name": "T40",
      "job": "Job"
    },
    {
      "duration": 1,
      "nr": 41,
      "machine": "n/a",
      "name": "T41",
      "job": "Job"
    },
    {
      "duration": 1,
      "nr": 42,
      "machine": "n/a",
      "name": "T42",
      "job": "Job"
    },
    {
      "duration": 1,
      "nr": 43,
      "machine": "n/a",
      "name": "T43",
      "job": "Job"
    },
    {
      "duration": 1,
      "nr": 44,
      "machine": "n/a",
      "name": "T44",
      "job": "Job"
    },
    {
      "duration": 1,
      "nr": 45,
      "machine": "n/a",
      "name": "T45",
      "job": "Job"
    },
    {
      "duration": 1,
      "nr": 46,
      "machine": "n/a",
      "name": "T46",
      "job": "Job"
    },
    {
      "duration": 1,
      "nr": 47,
      "machine": "n/a",
      "name": "T47",
      "job": "Job"
    },
    {
      "duration": 1,
      "nr": 48,
      "machine": "n/a",
      "name": "T48",
      "job": "Job"
    },
    {
      "duration": 1,
      "nr": 49,
      "machine": "n/a",
      "name": "T49",
      "job": "Job"
    },
    {
      "duration": 1,
      "nr": 50,
      "machine": "n/a",
      "name": "T50",
      "job": "Job"
    }
  ]
}
